c ren 1 -> 1
c ren 2 -> 2
c ren 3 -> 3
c ren 4 -> 4
c ren 5 -> 5
c ren 6 -> 6
c ren 7 -> 7
c ren 8 -> 8
c ren 9 -> 9
c ren 10 -> 10
c ren 11 -> 11
c ren 12 -> 12
c ren 13 -> 13
c ren 14 -> 14
c ren 15 -> 15
c ren 16 -> 16
c ren 17 -> 17
c ren 18 -> 18
c ren 19 -> 19
c ren 20 -> 20
c ren 21 -> 21
c ren 22 -> 22
c ren 23 -> 23
c ren 24 -> 24
c ren 25 -> 25
c ren 26 -> 26
c ren 27 -> 27
c ren 28 -> 28
c ren 29 -> 29
c ren 30 -> 30
c ren 31 -> 31
c ren 32 -> 32
c ren 62 -> 33
c ren 84 -> 34
c ren 88 -> 35
c ren 114 -> 36
c ren 118 -> 37
c ren 129 -> 38
c ren 139 -> 39
c ren 141 -> 40
c ren 142 -> 41
c ren 143 -> 42
c ren 153 -> 43
c ren 162 -> 44
c ren 166 -> 45
c ren 168 -> 46
c ren 169 -> 47
c ren 170 -> 48
c ren 171 -> 49
c ren 172 -> 50
c ren 173 -> 51
c ren 174 -> 52
c ren 175 -> 53
c ren 176 -> 54
c ren 177 -> 55
c ren 178 -> 56
c ren 179 -> 57
c ren 180 -> 58
c ren 181 -> 59
c ren 182 -> 60
c ren 183 -> 61
c ren 184 -> 62
c ren 185 -> 63
c ren 186 -> 64
c ren 187 -> 65
c ren 188 -> 66
c ren 189 -> 67
c ren 190 -> 68
c ren 191 -> 69
c ren 192 -> 70
c ren 193 -> 71
c ren 194 -> 72
c ren 195 -> 73
c ren 196 -> 74
c ren 197 -> 75
c ren 198 -> 76
c ren 242 -> 77
c ren 246 -> 78
c ren 312 -> 79
c ren 313 -> 80
c ren 314 -> 81
c ren 315 -> 82
c ren 316 -> 83
c ren 317 -> 84
c ren 318 -> 85
c ren 319 -> 86
c ren 320 -> 87
c ren 321 -> 88
c ren 322 -> 89
c ren 323 -> 90
c ren 324 -> 91
c ren 325 -> 92
c ren 326 -> 93
c ren 327 -> 94
c ren 328 -> 95
c ren 329 -> 96
c ren 330 -> 97
c ren 331 -> 98
p cnf 98 384
a 1 2 3 4 5 6 7 8 9 10 11 12 13 14 15 16 17 18 19 20 21 22 23 24 25 26 27 28 29 30 31 32 55 56 57 58 59 60 61 62 63 64 65 66 67 68 69 70 71 72 73 74 75 76 0
d 46 57 58 0
d 47 65 66 0
d 48 61 62 0
d 49 67 68 0
d 50 69 70 71 72 73 74 75 76 0
d 51 69 70 71 72 73 74 75 76 0
d 52 59 60 0
d 53 63 64 0
d 54 55 56 0
e 33 34 35 36 37 38 39 40 41 42 43 44 45 77 78 79 80 81 82 83 84 85 86 87 88 89 90 91 92 93 94 95 96 97 98 0
12 -25 -26 -27 43 0
10 12 -25 -27 -28 33 0
-9 -12 26 27 -33 -43 0
9 10 -26 43 0
9 10 11 -27 33 0
-10 -12 25 27 28 -43 0
10 12 -25 -27 43 0
9 10 -26 33 0
-10 -12 25 27 -33 -43 0
-9 -11 26 27 -43 0
-12 25 26 27 -33 -43 0
-10 25 26 -43 0
-11 25 26 27 -43 0
10 11 12 -25 43 0
9 10 12 -27 -28 33 0
9 12 -26 -27 43 0
9 10 11 12 43 0
-10 -11 -12 25 28 -43 0
-11 25 26 28 -33 -43 0
25 26 27 28 -33 -43 0
9 11 -26 -27 33 0
-9 25 -43 0
10 -25 -27 -28 43 0
-11 -12 25 26 28 -43 0
10 11 -25 -27 33 0
9 -26 -27 -28 43 0
-10 -11 -12 25 -33 -43 0
10 11 -25 -28 43 0
12 -25 -26 -27 -28 33 0
11 12 -25 -26 -28 33 0
-11 -12 25 26 -33 -43 0
9 -25 33 0
9 10 11 -27 43 0
9 11 -26 -28 43 0
11 -25 -26 -28 43 0
-38 -40 0
9 11 12 -26 -28 33 0
9 11 12 -26 43 0
9 10 11 12 -28 33 0
-10 -11 25 27 -43 0
-9 26 27 28 -33 -43 0
-9 -12 26 27 28 -43 0
9 10 11 -28 43 0
-10 -11 25 28 -33 -43 0
11 -25 -26 -27 33 0
-9 -10 -12 27 -33 -43 0
-9 -11 -12 26 28 -43 0
-9 -10 27 28 -33 -43 0
-9 -10 -11 27 -43 0
-9 -10 -12 27 28 -43 0
9 12 -26 -27 -28 33 0
-5 -8 -21 24 47 53 77 0
5 7 -22 -23 -34 0
7 -23 -35 0
5 -6 -7 -8 21 -22 -23 -24 35 0
6 8 -21 -23 -34 0
5 -21 -78 0
5 6 7 -23 -34 0
-6 -8 21 23 24 34 0
6 -22 -35 0
6 7 8 -48 -77 0
5 -21 -34 0
5 -6 7 -8 21 -22 23 -24 35 0
5 -6 7 8 21 -22 23 24 35 0
5 6 -23 -24 -34 0
5 -8 21 24 47 53 77 0
5 -21 -35 0
5 8 21 24 47 53 78 0
-6 21 22 34 0
7 8 -21 -22 -34 0
-8 24 -78 0
5 -6 -7 8 21 -22 -23 24 35 0
-7 23 -35 0
5 6 -7 8 21 22 -23 24 35 0
-6 22 -35 0
5 7 8 -22 -34 0
-5 21 34 0
5 -8 21 -24 47 53 78 0
5 6 7 8 21 22 23 24 35 0
-5 21 -78 0
6 -48 -53 -77 0
6 7 -21 -23 -34 0
-6 -7 21 23 34 0
6 7 -24 -48 -77 0
5 6 -7 -8 21 22 -23 -24 35 0
5 6 -22 -34 0
6 7 -47 -48 -77 0
8 -22 -23 -48 -77 0
-5 21 -35 0
-7 -8 21 22 24 34 0
7 -22 -47 -48 -77 0
7 8 -22 -48 -77 0
-22 -23 -47 -48 -77 0
6 -23 -24 -48 -77 0
8 -24 -35 0
-22 -23 -24 -48 -77 0
5 6 7 -8 21 22 23 -24 35 0
-7 21 22 23 34 0
8 -24 -78 0
5 -6 21 22 77 0
-8 21 22 23 24 34 0
5 -21 -48 -77 0
5 7 -22 -24 -34 0
-14 -16 -30 31 -32 33 34 -35 36 -37 38 -39 41 45 0
35 -45 0
7 -21 -22 -23 -34 0
-36 -45 0
34 36 -39 40 41 42 -43 -44 0
7 -21 -22 -24 -34 0
-5 -6 -7 23 34 0
-2 -17 18 -52 74 -75 -76 79 80 81 82 83 84 85 86 87 88 89 90 91 92 93 94 95 96 97 98 0
-34 -37 44 0
-5 -7 -21 23 53 77 0
2 -17 -19 -20 -36 0
3 -19 -37 0
3 -73 -98 0
2 3 -17 -19 -36 0
1 -2 3 -4 17 -18 19 -20 37 0
1 -2 18 52 74 -75 76 79 80 81 82 83 84 85 86 87 88 89 90 91 92 93 94 95 96 97 98 0
-1 -2 -3 19 36 0
2 -18 -37 0
1 -18 52 -74 -75 76 79 80 81 82 83 84 85 86 87 88 89 90 91 92 93 94 95 96 97 98 0
-2 -17 18 52 74 -75 76 79 80 81 82 83 84 85 86 87 88 89 90 91 92 93 94 95 96 97 98 0
2 -17 52 -74 -75 76 79 80 81 82 83 84 85 86 87 88 89 90 91 92 93 94 95 96 97 98 0
-1 17 -37 0
1 -17 -37 0
2 -17 -18 -36 0
1 -17 -71 -96 0
1 3 -18 -19 -36 0
-4 20 -37 0
-15 -16 30 -31 -32 33 38 -39 40 45 -49 -50 -51 77 78 -79 0
-3 19 -37 0
-1 2 17 -52 -74 75 -76 79 80 81 82 83 84 85 86 87 88 89 90 91 92 93 94 95 96 97 98 0
-2 18 -37 0
1 -18 -19 -20 -36 0
-1 17 36 0
-1 -17 71 -96 0
-1 -4 18 19 20 36 0
1 -2 -3 -4 17 -18 -19 -20 37 0
-1 -2 -3 -4 20 36 0
1 2 3 4 -36 0
1 2 -18 -36 0
1 -2 18 -52 74 -75 -76 79 80 81 82 83 84 85 86 87 88 89 90 91 92 93 94 95 96 97 98 0
1 2 4 -19 -36 0
-19 -73 -98 0
1 3 -18 -20 -36 0
1 17 71 -96 0
-3 17 18 19 36 0
-1 17 -18 -52 -74 75 -76 79 80 81 82 83 84 85 86 87 88 89 90 91 92 93 94 95 96 97 98 0
-1 -2 17 18 52 74 75 76 79 80 81 82 83 84 85 86 87 88 89 90 91 92 93 94 95 96 97 98 0
1 3 4 -18 -36 0
2 3 -17 -20 -36 0
2 4 -17 -19 -36 0
4 -72 -97 0
4 -20 -37 0
-4 17 18 19 20 36 0
1 -18 -52 -74 -75 -76 79 80 81 82 83 84 85 86 87 88 89 90 91 92 93 94 95 96 97 98 0
-20 -72 -97 0
1 2 -3 -4 17 18 -19 -20 37 0
-3 -4 17 18 20 36 0
2 3 4 -17 -36 0
-3 19 73 -98 0
-1 -2 17 18 -52 74 75 -76 79 80 81 82 83 84 85 86 87 88 89 90 91 92 93 94 95 96 97 98 0
1 -17 -36 0
-4 20 72 -97 0
-14 -15 -16 -31 -32 33 34 -35 36 -37 38 -39 40 45 0
37 -45 0
-2 -3 -4 17 20 36 0
15 -16 30 31 -32 33 34 -35 36 -37 38 -39 40 45 0
36 37 -44 0
1 -2 -3 4 17 -18 -19 20 37 0
15 16 30 31 32 33 34 -35 36 -37 38 -39 40 45 0
-15 16 30 -31 32 33 34 -35 36 -37 38 -39 40 45 0
15 -31 -42 0
6 -21 -22 -34 0
14 -30 -41 0
-13 -38 0
29 -38 0
-13 29 -39 0
-38 -41 0
39 -42 0
-14 -15 -30 -31 32 33 38 -39 42 45 -49 50 51 77 78 -79 0
8 -21 -22 -23 -34 0
40 41 42 -43 -44 -49 -50 77 -79 0
14 15 -16 30 31 32 38 -39 42 0
14 -15 30 31 38 -39 41 0
13 39 0
-29 39 0
-38 -42 0
33 -42 44 -51 78 -79 0
14 -15 -16 30 -31 32 38 -39 42 0
-31 -41 0
-41 -45 0
-5 8 -21 24 47 53 78 0
39 -41 0
-44 -50 77 -78 -79 0
-32 -42 0
-30 -40 0
-14 -15 -30 31 38 -39 41 0
-14 -16 -30 31 -32 33 38 -39 41 45 -49 50 51 77 78 -79 0
39 -40 0
10 11 12 -25 -28 33 0
9 11 -26 -27 43 0
1 -2 3 4 17 -18 19 20 37 0
-14 -15 -30 -31 32 33 34 -35 36 -37 38 -39 42 45 0
-33 34 36 -43 -44 0
33 -35 -37 -41 44 0
-2 -3 17 19 36 0
-5 -6 -7 -8 24 34 0
-5 6 -7 8 -21 22 -23 24 35 0
-5 -6 7 8 -21 -22 23 24 35 0
-5 -6 7 -8 -21 -22 23 -24 35 0
-5 -8 -21 -24 47 53 78 0
-5 6 7 8 -21 22 23 24 35 0
-9 -10 -11 28 -33 -43 0
33 -35 -37 -42 44 0
-5 -8 22 23 24 34 0
-5 -6 -8 23 24 34 0
-9 -10 -11 -12 -33 -43 0
15 -41 0
-42 -45 0
39 -45 0
16 -42 0
-36 44 0
-33 -45 0
2 -17 -52 -74 -75 -76 79 80 81 82 83 84 85 86 87 88 89 90 91 92 93 94 95 96 97 98 0
34 35 36 -44 0
-35 -37 43 44 0
-9 -11 -12 26 -33 -43 0
10 -25 -26 33 0
9 10 12 -27 43 0
-10 25 27 28 -33 -43 0
10 -25 -26 43 0
-12 25 26 27 28 -43 0
11 12 -25 -26 43 0
-25 -26 -27 -28 43 0
-9 -10 26 -43 0
11 -25 -26 -27 43 0
-5 -6 -7 8 -21 -22 -23 24 35 0
9 -25 43 0
10 11 -25 -27 43 0
9 10 -27 -28 43 0
-9 -11 26 28 -33 -43 0
-9 -10 -11 -12 28 -43 0
-5 -6 22 34 0
33 43 0
6 7 -21 -24 -34 0
-5 -7 -8 22 24 34 0
7 -22 -24 -48 -77 0
5 -7 21 23 53 77 0
-6 -7 -8 21 24 34 0
-5 21 -48 -77 0
-8 24 -35 0
5 6 7 -24 -34 0
5 8 -22 -23 -34 0
6 8 -23 -48 -77 0
48 77 0
6 -23 -47 -48 -77 0
5 6 7 8 -34 0
-2 -4 17 19 20 36 0
5 6 8 -23 -34 0
5 -22 -23 -24 -34 0
-21 -22 -23 -24 -34 0
-47 -78 0
-53 -78 0
-22 -48 -53 -77 0
-45 -78 -79 0
-15 -16 30 -31 -32 33 34 -35 36 -37 38 -39 40 45 0
33 44 49 -51 78 -79 0
33 44 49 50 78 -79 0
-45 -50 51 -79 0
-14 -15 -16 -31 -32 33 38 -39 40 45 -49 -50 -51 77 78 -79 0
-44 51 77 -78 -79 0
-44 -50 51 -79 0
33 -41 44 50 78 -79 0
-14 15 -16 -30 31 32 38 -39 42 0
33 -35 -37 39 44 0
-34 -45 0
13 -29 38 0
-14 30 38 -39 40 0
-15 -16 30 -31 -32 33 38 -39 40 45 -49 50 51 77 78 -79 0
-5 -6 -7 -8 -21 -22 -23 -24 35 0
-40 -45 0
6 7 8 -21 -34 0
33 -35 -37 -40 44 0
3 -17 -18 -19 -36 0
43 44 50 78 -79 0
33 -41 44 -51 78 -79 0
44 50 -77 -79 0
-45 50 -51 -79 0
44 -51 -77 -79 0
-14 -15 -16 -30 -31 32 38 -39 42 0
-14 16 -30 31 32 33 34 -35 36 -37 38 -39 41 45 0
-5 -6 -21 22 77 0
6 -21 -23 -24 -34 0
-14 16 -30 31 32 33 38 -39 41 45 -49 50 51 77 78 -79 0
-5 6 7 -8 -21 22 23 -24 35 0
-5 6 -7 -8 -21 22 -23 -24 35 0
15 16 30 31 32 33 38 -39 40 45 -49 50 51 77 78 -79 0
15 -16 30 31 -32 33 38 -39 40 45 -49 50 51 77 78 -79 0
-33 -43 -44 -50 77 -79 0
14 -40 0
-45 49 -79 0
-5 -7 22 23 34 0
33 -40 44 50 78 -79 0
-2 17 18 36 0
-1 -2 18 36 0
33 -42 44 50 78 -79 0
44 50 -51 -79 0
-15 16 30 -31 32 33 38 -39 40 45 -49 50 51 77 78 -79 0
-45 -77 -79 0
-14 -15 -16 -31 -32 33 38 -39 40 45 -49 50 51 77 78 -79 0
-2 -55 -80 0
-17 -18 52 -74 -75 76 79 80 81 82 83 84 85 86 87 88 89 90 91 92 93 94 95 96 97 98 0
40 41 42 -43 -44 -49 51 77 -79 0
2 55 -80 0
-18 -56 -81 0
-1 2 -3 4 -17 18 -19 20 37 0
18 56 -81 0
-3 -57 -82 0
43 44 -51 78 -79 0
3 57 -82 0
-19 -58 -83 0
-33 -43 -44 51 77 -79 0
-1 -2 -3 -4 -17 -18 -19 -20 37 0
19 58 -83 0
-4 -59 -84 0
-1 2 -3 -4 -17 18 -19 -20 37 0
4 59 -84 0
-20 -60 -85 0
-1 -2 3 -4 -17 -18 19 -20 37 0
3 4 -17 -18 -36 0
20 60 -85 0
-5 -61 -86 0
5 61 -86 0
-21 -62 -87 0
-17 -18 -52 -74 -75 -76 79 80 81 82 83 84 85 86 87 88 89 90 91 92 93 94 95 96 97 98 0
-15 16 30 -31 32 33 38 -39 40 45 -49 -50 -51 77 78 -79 0
21 62 -87 0
-6 -63 -88 0
33 -40 44 -51 78 -79 0
6 63 -88 0
-22 -64 -89 0
-1 -2 -3 4 -17 -18 -19 20 37 0
22 64 -89 0
-7 -65 -90 0
-14 16 -30 31 32 33 38 -39 41 45 -49 -50 -51 77 78 -79 0
-1 2 3 4 -17 18 19 20 37 0
7 65 -90 0
-23 -66 -91 0
4 -17 -18 -19 -36 0
-1 2 3 -4 -17 18 19 -20 37 0
23 66 -91 0
-13 -67 -92 0
15 16 30 31 32 33 38 -39 40 45 -49 -50 -51 77 78 -79 0
3 -17 -18 -20 -36 0
13 67 -92 0
-29 -68 -93 0
15 -16 30 31 -32 33 38 -39 40 45 -49 -50 -51 77 78 -79 0
-1 -2 3 4 -17 -18 19 20 37 0
29 68 -93 0
-46 -69 -94 0
-14 -15 -30 -31 32 33 38 -39 42 45 -49 -50 -51 77 78 -79 0
46 69 -94 0
-54 -70 -95 0
-14 -16 -30 31 -32 33 38 -39 41 45 -49 -50 -51 77 78 -79 0
54 70 -95 0
-1 17 -71 -96 0
1 2 3 -4 17 18 19 -20 37 0
-1 -3 18 19 36 0
1 2 -3 4 17 18 -19 20 37 0
1 4 -18 -19 -36 0
1 2 -19 -20 -36 0
1 2 3 -19 -36 0
-1 -2 -4 19 20 36 0
-17 -18 -19 -20 -36 0
1 2 -52 -74 -75 -76 79 80 81 82 83 84 85 86 87 88 89 90 91 92 93 94 95 96 97 98 0
-1 -3 -4 18 20 36 0
-1 17 -18 52 -74 75 76 79 80 81 82 83 84 85 86 87 88 89 90 91 92 93 94 95 96 97 98 0
1 2 52 -74 -75 76 79 80 81 82 83 84 85 86 87 88 89 90 91 92 93 94 95 96 97 98 0
-1 2 17 52 -74 75 76 79 80 81 82 83 84 85 86 87 88 89 90 91 92 93 94 95 96 97 98 0
1 2 3 -20 -36 0
14 -30 -42 0
1 2 3 4 17 18 19 20 37 0
